Minimize
  obj: x0 + x1 + x2 + x3 + x4 + x5

Subject To
  c0: x0 + x2 = 9
  c1: x1 + x2 + x4 = 24
  c2: x0 + x3 + x4 + x5 = 43
  c3: x0 + x1 + x3 = 41
  c4: x1 + x2 + x3 + x4 + x5 = 47
  c5: x0 + x2 + x3 + x5 = 32
  c6: x0 + x2 = 9
  c7: x0 + x1 + x2 + x3 + x4 + x5 = 56

Bounds
  x0 >= 0
  x1 >= 0
  x2 >= 0
  x3 >= 0
  x4 >= 0
  x5 >= 0

Generals
  x0 x1 x2 x3 x4 x5

End
